generated by phonopy
   1.0
     5.9120033599999999    0.0000000000000000    0.0000000000000000
     0.0000000000000000    5.9120014599999999    0.0000000000000000
     0.0000000000000000    0.0000000000000000    8.4102174499999993
Ba Zr O
   4    4   12
Direct
  0.0008655306312275  0.5008656915994740  0.2483669039972326
  0.5008655306312275  0.0008656915994740  0.2483669039972326
  0.5008655306312275  0.0008656915994740  0.7483669045917476
  0.0008655306312275  0.5008656915994740  0.7483669045917476
  0.5008655306312275  0.5008656915994740  0.4983669048890050
  0.0008655306312275  0.0008656915994740  0.4983669048890050
  0.0008655306312275  0.0008656915994740  0.9983669042944900
  0.5008655306312275  0.5008656915994740  0.9983669042944900
  0.7717721493311194  0.2717722011523319  0.4983669048890050
  0.7299589119313357  0.7717722011523318  0.4983669048890050
  0.2717721493311195  0.2299591820466161  0.4983669048890050
  0.2299589119313356  0.7299591820466160  0.4983669048890050
  0.5008655306312275  0.5008656915994740  0.2483669039972326
  0.0008655306312275  0.0008656915994740  0.2483669039972326
  0.2717721493311195  0.7717722011523318  0.9983669042944900
  0.2299589119313356  0.2717722011523319  0.9983669042944900
  0.7717721493311194  0.7299591820466160  0.9983669042944900
  0.7299589119313357  0.2299591820466161  0.9983669042944900
  0.0008655306312275  0.0008656915994740  0.7483669045917476
  0.5008655306312275  0.5008656915994740  0.7483669045917476
