# File generated with Atomsk by gengzi on 2024-02-07 17:50:14
1.000000
      4.19182160        0.00000000        0.00000000
      0.00000000        4.19182160        0.00000000
      0.00000000        0.00000000        4.19182160
 Ba  Zr  O
     1       1       3
Cartesian
      0.01028278        0.01028278        0.01028278
      2.10619357        2.10619357        2.10619357
      2.10619357        0.01028278        2.10619357
      2.10619357        2.10619357        0.01028278
      0.01028278        2.10619357        2.10619357
